GLPSOL--GLPK LP/MIP Solver 5.0
Parameter(s) specified in the command line:
 --cpxlp --first inputs/new_no_tr/order/jump35_up_right_input.lp -o solutions/new_no_tr/jump35_up_right_input.lp
Reading problem data from 'inputs/new_no_tr/order/jump35_up_right_input.lp'...
inputs/new_no_tr/order/jump35_up_right_input.lp:5959: warning: lower bound of variable 'm_35_35' redefined
inputs/new_no_tr/order/jump35_up_right_input.lp:5959: warning: upper bound of variable 'm_35_35' redefined
5746 rows, 2486 columns, 17484 non-zeros
2486 integer variables, 2280 of which are binary
8409 lines were read
GLPK Integer Optimizer 5.0
5746 rows, 2486 columns, 17484 non-zeros
2486 integer variables, 2280 of which are binary
Preprocessing...
44 hidden packing inequaliti(es) were detected
346 hidden covering inequaliti(es) were detected
1090 constraint coefficient(s) were reduced
5371 rows, 2214 columns, 16050 non-zeros
2214 integer variables, 2178 of which are binary
Scaling...
 A: min|aij| =  1.000e+00  max|aij| =  1.024e+04  ratio =  1.024e+04
GM: min|aij| =  4.111e-01  max|aij| =  2.432e+00  ratio =  5.916e+00
EQ: min|aij| =  1.690e-01  max|aij| =  1.000e+00  ratio =  5.916e+00
2N: min|aij| =  1.250e-01  max|aij| =  1.562e+00  ratio =  1.250e+01
Constructing initial basis...
Size of triangular part is 4826
Solving LP relaxation...
GLPK Simplex Optimizer 5.0
5371 rows, 2214 columns, 16050 non-zeros
      0: obj =   2.969600000e+04 inf =   7.000e+02 (350)
   1487: obj =   4.638512591e+04 inf =   4.462e-14 (0) 14
*  2140: obj =   2.969600000e+04 inf =   1.606e-13 (0) 6
OPTIMAL LP SOLUTION FOUND
Integer optimization begins...
Long-step dual simplex will be used
+  2140: mip =     not found yet >=              -inf        (1; 0)
+ 13955: mip =     not found yet >=   2.969600000e+04        (60; 5)
+ 25054: mip =     not found yet >=   2.969600000e+04        (73; 8)
+ 36790: mip =     not found yet >=   2.969600000e+04        (99; 11)
+ 49260: mip =     not found yet >=   2.969600000e+04        (104; 13)
+ 60613: mip =     not found yet >=   2.969600000e+04        (138; 20)
+ 75430: mip =     not found yet >=   2.969600000e+04        (211; 30)
+ 87778: mip =     not found yet >=   2.969600000e+04        (286; 39)
+100948: mip =     not found yet >=   2.969600000e+04        (329; 47)
+112309: mip =     not found yet >=   2.969600000e+04        (348; 57)
+123198: mip =     not found yet >=   2.969600000e+04        (357; 62)
+136768: mip =     not found yet >=   2.969600000e+04        (366; 67)
Time used: 60.7 secs.  Memory used: 8.7 Mb.
+148667: mip =     not found yet >=   2.969600000e+04        (380; 79)
+159440: mip =     not found yet >=   2.969600000e+04        (400; 85)
+169645: mip =     not found yet >=   2.969600000e+04        (411; 92)
+180646: mip =     not found yet >=   2.969600000e+04        (418; 101)
+193062: mip =     not found yet >=   2.969600000e+04        (425; 107)
+204487: mip =     not found yet >=   2.969600000e+04        (436; 115)
+216194: mip =     not found yet >=   2.969600000e+04        (451; 122)
+228261: mip =     not found yet >=   2.969600000e+04        (454; 127)
+239770: mip =     not found yet >=   2.969600000e+04        (459; 131)
+252236: mip =     not found yet >=   2.969600000e+04        (470; 138)
+263232: mip =     not found yet >=   2.969600000e+04        (490; 143)
Time used: 120.8 secs.  Memory used: 9.9 Mb.
+274055: mip =     not found yet >=   2.969600000e+04        (512; 146)
+287712: mip =     not found yet >=   2.969600000e+04        (544; 157)
+299333: mip =     not found yet >=   2.969600000e+04        (566; 173)
+312240: mip =     not found yet >=   2.969600000e+04        (579; 194)
+323153: mip =     not found yet >=   2.969600000e+04        (585; 212)
+335195: mip =     not found yet >=   2.969600000e+04        (587; 223)
+346306: mip =     not found yet >=   2.969600000e+04        (599; 235)
+358465: mip =     not found yet >=   2.969600000e+04        (610; 249)
+372049: mip =     not found yet >=   2.969600000e+04        (625; 263)
+383164: mip =     not found yet >=   2.969600000e+04        (640; 281)
+394899: mip =     not found yet >=   2.969600000e+04        (649; 292)
Time used: 181.8 secs.  Memory used: 11.4 Mb.
+406100: mip =     not found yet >=   2.969600000e+04        (658; 295)
+418571: mip =     not found yet >=   2.969600000e+04        (661; 300)
+430232: mip =     not found yet >=   2.969600000e+04        (666; 306)
+440436: mip =     not found yet >=   2.969600000e+04        (668; 309)
+452462: mip =     not found yet >=   2.969600000e+04        (692; 318)
+463629: mip =     not found yet >=   2.969600000e+04        (709; 328)
+474436: mip =     not found yet >=   2.969600000e+04        (728; 332)
+486646: mip =     not found yet >=   2.969600000e+04        (756; 343)
+498784: mip =     not found yet >=   2.969600000e+04        (766; 357)
+509595: mip =     not found yet >=   2.969600000e+04        (767; 371)
+524187: mip =     not found yet >=   2.969600000e+04        (774; 385)
Time used: 241.9 secs.  Memory used: 12.7 Mb.
+536550: mip =     not found yet >=   2.969600000e+04        (775; 388)
+547852: mip =     not found yet >=   2.969600000e+04        (785; 396)
+559864: mip =     not found yet >=   2.969600000e+04        (808; 402)
+570898: mip =     not found yet >=   2.969600000e+04        (812; 414)
+583397: mip =     not found yet >=   2.969600000e+04        (814; 423)
+595017: mip =     not found yet >=   2.969600000e+04        (819; 428)
+606170: mip =     not found yet >=   2.969600000e+04        (825; 431)
+617309: mip =     not found yet >=   2.969600000e+04        (835; 434)
+627913: mip =     not found yet >=   2.969600000e+04        (833; 439)
+639395: mip =     not found yet >=   2.969600000e+04        (842; 444)
+653111: mip =     not found yet >=   2.969600000e+04        (848; 448)
Time used: 302.7 secs.  Memory used: 13.6 Mb.
+664627: mip =     not found yet >=   2.969600000e+04        (852; 451)
+675612: mip =     not found yet >=   2.969600000e+04        (864; 458)
+686792: mip =     not found yet >=   2.969600000e+04        (879; 471)
+697378: mip =     not found yet >=   2.969600000e+04        (885; 477)
+708476: mip =     not found yet >=   2.969600000e+04        (908; 483)
+721781: mip =     not found yet >=   2.969600000e+04        (924; 490)
+733010: mip =     not found yet >=   2.969600000e+04        (927; 502)
+743694: mip =     not found yet >=   2.969600000e+04        (932; 505)
+754812: mip =     not found yet >=   2.969600000e+04        (940; 509)
+766636: mip =     not found yet >=   2.969600000e+04        (954; 519)
+777021: mip =     not found yet >=   2.969600000e+04        (960; 525)
+788854: mip =     not found yet >=   2.969600000e+04        (978; 529)
Time used: 364.6 secs.  Memory used: 14.8 Mb.
+801180: mip =     not found yet >=   2.969600000e+04        (985; 533)
+813810: mip =     not found yet >=   2.969600000e+04        (997; 539)
+825150: mip =     not found yet >=   2.969600000e+04        (1008; 547)
+837518: mip =     not found yet >=   2.969600000e+04        (1019; 552)
+848325: mip =     not found yet >=   2.969600000e+04        (1025; 555)
+860946: mip =     not found yet >=   2.969600000e+04        (1025; 559)
+871959: mip =     not found yet >=   2.969600000e+04        (1033; 562)
+883274: mip =     not found yet >=   2.969600000e+04        (1049; 566)
+893960: mip =     not found yet >=   2.969600000e+04        (1053; 570)
+905024: mip =     not found yet >=   2.969600000e+04        (1063; 576)
+916198: mip =     not found yet >=   2.969600000e+04        (1086; 581)
Time used: 424.6 secs.  Memory used: 16.0 Mb.
+928180: mip =     not found yet >=   2.969600000e+04        (1088; 592)
+939449: mip =     not found yet >=   2.969600000e+04        (1106; 596)
+951276: mip =     not found yet >=   2.969600000e+04        (1147; 605)
+962152: mip =     not found yet >=   2.969600000e+04        (1158; 612)
+975334: mip =     not found yet >=   2.969600000e+04        (1200; 623)
+986378: mip =     not found yet >=   2.969600000e+04        (1203; 625)
+997509: mip =     not found yet >=   2.969600000e+04        (1227; 635)
+1010372: mip =     not found yet >=   2.969600000e+04        (1235; 649)
+1022082: mip =     not found yet >=   2.969600000e+04        (1243; 657)
+1032471: mip =     not found yet >=   2.969600000e+04        (1249; 666)
+1043596: mip =     not found yet >=   2.969600000e+04        (1254; 670)
Time used: 485.1 secs.  Memory used: 17.4 Mb.
+1056891: mip =     not found yet >=   2.969600000e+04        (1259; 675)
+1069001: mip =     not found yet >=   2.969600000e+04        (1265; 681)
+1081178: mip =     not found yet >=   2.969600000e+04        (1288; 701)
+1092819: mip =     not found yet >=   2.969600000e+04        (1305; 730)
+1103183: mip =     not found yet >=   2.969600000e+04        (1305; 740)
+1116658: mip =     not found yet >=   2.969600000e+04        (1319; 747)
+1127764: mip =     not found yet >=   2.969600000e+04        (1334; 750)
+1139110: mip =     not found yet >=   2.969600000e+04        (1339; 757)
+1150332: mip =     not found yet >=   2.969600000e+04        (1352; 761)
+1161609: mip =     not found yet >=   2.969600000e+04        (1357; 767)
+1173985: mip =     not found yet >=   2.969600000e+04        (1362; 771)
Time used: 545.5 secs.  Memory used: 18.8 Mb.
+1185616: mip =     not found yet >=   2.969600000e+04        (1370; 774)
+1198484: mip =     not found yet >=   2.969600000e+04        (1379; 780)
+1211329: mip =     not found yet >=   2.969600000e+04        (1391; 791)
+1224442: mip =     not found yet >=   2.969600000e+04        (1401; 797)
+1235841: mip =     not found yet >=   2.969600000e+04        (1421; 808)
+1247500: mip =     not found yet >=   2.969600000e+04        (1430; 821)
+1258567: mip =     not found yet >=   2.969600000e+04        (1438; 832)
+1269942: mip =     not found yet >=   2.969600000e+04        (1445; 840)
+1282394: mip =     not found yet >=   2.969600000e+04        (1456; 846)
+1294050: mip =     not found yet >=   2.969600000e+04        (1468; 859)
+1306479: mip =     not found yet >=   2.969600000e+04        (1481; 875)
Time used: 605.5 secs.  Memory used: 20.2 Mb.
+1317863: mip =     not found yet >=   2.969600000e+04        (1487; 882)
+1329718: mip =     not found yet >=   2.969600000e+04        (1492; 886)
+1341330: mip =     not found yet >=   2.969600000e+04        (1495; 894)
+1352599: mip =     not found yet >=   2.969600000e+04        (1502; 897)
+1364746: mip =     not found yet >=   2.969600000e+04        (1512; 915)
+1376194: mip =     not found yet >=   2.969600000e+04        (1514; 932)
+1389004: mip =     not found yet >=   2.969600000e+04        (1527; 936)
+1400713: mip =     not found yet >=   2.969600000e+04        (1530; 938)
+1411728: mip =     not found yet >=   2.969600000e+04        (1534; 942)
+1422872: mip =     not found yet >=   2.969600000e+04        (1542; 947)
+1434816: mip =     not found yet >=   2.969600000e+04        (1547; 951)
Time used: 665.7 secs.  Memory used: 21.2 Mb.
+1446828: mip =     not found yet >=   2.969600000e+04        (1554; 966)
+1458177: mip =     not found yet >=   2.969600000e+04        (1566; 976)
+1471479: mip =     not found yet >=   2.969600000e+04        (1600; 979)
+1486402: mip =     not found yet >=   2.969600000e+04        (1646; 986)
+1497591: mip =     not found yet >=   2.969600000e+04        (1656; 992)
+1510003: mip =     not found yet >=   2.969600000e+04        (1665; 996)
+1521777: mip =     not found yet >=   2.969600000e+04        (1675; 1001)
+1532721: mip =     not found yet >=   2.969600000e+04        (1682; 1002)
+1543818: mip =     not found yet >=   2.969600000e+04        (1689; 1005)
+1555079: mip =     not found yet >=   2.969600000e+04        (1696; 1018)
+1566044: mip =     not found yet >=   2.969600000e+04        (1702; 1020)
+1577462: mip =     not found yet >=   2.969600000e+04        (1727; 1025)
Time used: 725.7 secs.  Memory used: 22.6 Mb.
+1590791: mip =     not found yet >=   2.969600000e+04        (1740; 1030)
+1601909: mip =     not found yet >=   2.969600000e+04        (1751; 1039)
+1612412: mip =     not found yet >=   2.969600000e+04        (1751; 1041)
+1623738: mip =     not found yet >=   2.969600000e+04        (1762; 1055)
+1634069: mip =     not found yet >=   2.969600000e+04        (1767; 1058)
+1644371: mip =     not found yet >=   2.969600000e+04        (1767; 1061)
+1655599: mip =     not found yet >=   2.969600000e+04        (1776; 1066)
+1667056: mip =     not found yet >=   2.969600000e+04        (1791; 1071)
+1679393: mip =     not found yet >=   2.969600000e+04        (1800; 1075)
+1690902: mip =     not found yet >=   2.969600000e+04        (1813; 1078)
+1702263: mip =     not found yet >=   2.969600000e+04        (1822; 1080)
Time used: 786.3 secs.  Memory used: 23.5 Mb.
+1713842: mip =     not found yet >=   2.969600000e+04        (1827; 1083)
+1725751: mip =     not found yet >=   2.969600000e+04        (1852; 1087)
+1736344: mip =     not found yet >=   2.969600000e+04        (1862; 1090)
+1747482: mip =     not found yet >=   2.969600000e+04        (1869; 1093)
+1759245: mip =     not found yet >=   2.969600000e+04        (1874; 1097)
+1770852: mip =     not found yet >=   2.969600000e+04        (1879; 1105)
+1782569: mip =     not found yet >=   2.969600000e+04        (1884; 1112)
+1794408: mip =     not found yet >=   2.969600000e+04        (1894; 1115)
+1805712: mip =     not found yet >=   2.969600000e+04        (1900; 1119)
+1817280: mip =     not found yet >=   2.969600000e+04        (1905; 1122)
+1829001: mip =     not found yet >=   2.969600000e+04        (1919; 1127)
Time used: 846.7 secs.  Memory used: 24.7 Mb.
+1840689: mip =     not found yet >=   2.969600000e+04        (1922; 1130)
+1851893: mip =     not found yet >=   2.969600000e+04        (1927; 1136)
+1863696: mip =     not found yet >=   2.969600000e+04        (1935; 1140)
+1876752: mip =     not found yet >=   2.969600000e+04        (1941; 1143)
+1887769: mip =     not found yet >=   2.969600000e+04        (1947; 1145)
+1901317: mip =     not found yet >=   2.969600000e+04        (1950; 1149)
+1912550: mip =     not found yet >=   2.969600000e+04        (1955; 1154)
+1923914: mip =     not found yet >=   2.969600000e+04        (1963; 1159)
+1935307: mip =     not found yet >=   2.969600000e+04        (1980; 1162)
+1946713: mip =     not found yet >=   2.969600000e+04        (1985; 1166)
+1957248: mip =     not found yet >=   2.969600000e+04        (1988; 1168)
+1969107: mip =     not found yet >=   2.969600000e+04        (1998; 1173)
Time used: 907.0 secs.  Memory used: 25.7 Mb.
+1980437: mip =     not found yet >=   2.969600000e+04        (2002; 1177)
+1991546: mip =     not found yet >=   2.969600000e+04        (2010; 1183)
+2002285: mip =     not found yet >=   2.969600000e+04        (2015; 1190)
+2014037: mip =     not found yet >=   2.969600000e+04        (2023; 1192)
+2026209: mip =     not found yet >=   2.969600000e+04        (2026; 1195)
+2037614: mip =     not found yet >=   2.969600000e+04        (2032; 1204)
+2048139: mip =     not found yet >=   2.969600000e+04        (2045; 1211)
+2059792: mip =     not found yet >=   2.969600000e+04        (2057; 1226)
+2070256: mip =     not found yet >=   2.969600000e+04        (2056; 1234)
+2081657: mip =     not found yet >=   2.969600000e+04        (2058; 1241)
+2093601: mip =     not found yet >=   2.969600000e+04        (2064; 1252)
Time used: 968.0 secs.  Memory used: 26.6 Mb.
+2105274: mip =     not found yet >=   2.969600000e+04        (2073; 1262)
+2115649: mip =     not found yet >=   2.969600000e+04        (2078; 1267)
+2128059: mip =     not found yet >=   2.969600000e+04        (2089; 1274)
+2139022: mip =     not found yet >=   2.969600000e+04        (2092; 1277)
+2151202: mip =     not found yet >=   2.969600000e+04        (2117; 1283)
+2162143: mip =     not found yet >=   2.969600000e+04        (2122; 1289)
+2172902: mip =     not found yet >=   2.969600000e+04        (2133; 1293)
+2183832: mip =     not found yet >=   2.969600000e+04        (2151; 1298)
+2194533: mip =     not found yet >=   2.969600000e+04        (2159; 1314)
+2205916: mip =     not found yet >=   2.969600000e+04        (2167; 1326)
+2216147: mip =     not found yet >=   2.969600000e+04        (2165; 1333)
+2226713: mip =     not found yet >=   2.969600000e+04        (2167; 1339)
Time used: 1028.7 secs.  Memory used: 27.6 Mb.
+2238332: mip =     not found yet >=   2.969600000e+04        (2171; 1354)
+2249869: mip =     not found yet >=   2.969600000e+04        (2181; 1366)
+2262647: mip =     not found yet >=   2.969600000e+04        (2181; 1380)
+2274573: mip =     not found yet >=   2.969600000e+04        (2189; 1394)
+2286609: mip =     not found yet >=   2.969600000e+04        (2196; 1407)
+2298763: mip =     not found yet >=   2.969600000e+04        (2198; 1417)
+2309160: mip =     not found yet >=   2.969600000e+04        (2199; 1426)
+2319779: mip =     not found yet >=   2.969600000e+04        (2205; 1432)
+2331071: mip =     not found yet >=   2.969600000e+04        (2212; 1437)
+2341756: mip =     not found yet >=   2.969600000e+04        (2218; 1441)
+2352490: mip =     not found yet >=   2.969600000e+04        (2230; 1448)
Time used: 1088.7 secs.  Memory used: 28.6 Mb.
+2363665: mip =     not found yet >=   2.969600000e+04        (2249; 1458)
+2375293: mip =     not found yet >=   2.969600000e+04        (2266; 1478)
+2389521: mip =     not found yet >=   2.969600000e+04        (2277; 1501)
+2400562: mip =     not found yet >=   2.969600000e+04        (2281; 1511)
+2411295: mip =     not found yet >=   2.969600000e+04        (2293; 1530)
+2427037: mip =     not found yet >=   2.969600000e+04        (2318; 1558)
+2438094: mip =     not found yet >=   2.969600000e+04        (2328; 1565)
+2450383: mip =     not found yet >=   2.969600000e+04        (2333; 1576)
+2463159: mip =     not found yet >=   2.969600000e+04        (2345; 1581)
+2473986: mip =     not found yet >=   2.969600000e+04        (2348; 1587)
Time used: 1149.0 secs.  Memory used: 29.9 Mb.
+2486536: mip =     not found yet >=   2.969600000e+04        (2356; 1595)
+2497765: mip =     not found yet >=   2.969600000e+04        (2362; 1603)
+2508392: mip =     not found yet >=   2.969600000e+04        (2364; 1609)
+2521024: mip =     not found yet >=   2.969600000e+04        (2375; 1614)
+2532074: mip =     not found yet >=   2.969600000e+04        (2373; 1622)
+2543298: mip =     not found yet >=   2.969600000e+04        (2372; 1630)
+2553724: mip =     not found yet >=   2.969600000e+04        (2379; 1635)
+2565142: mip =     not found yet >=   2.969600000e+04        (2385; 1640)
+2576146: mip =     not found yet >=   2.969600000e+04        (2386; 1643)
+2588030: mip =     not found yet >=   2.969600000e+04        (2400; 1649)
+2599082: mip =     not found yet >=   2.969600000e+04        (2416; 1669)
+2611968: mip =     not found yet >=   2.969600000e+04        (2424; 1691)
Time used: 1209.2 secs.  Memory used: 31.0 Mb.
+2624488: mip =     not found yet >=   2.969600000e+04        (2420; 1697)
+2636286: mip =     not found yet >=   2.969600000e+04        (2428; 1700)
+2648133: mip =     not found yet >=   2.969600000e+04        (2432; 1705)
+2658857: mip =     not found yet >=   2.969600000e+04        (2438; 1718)
+2672367: mip =     not found yet >=   2.969600000e+04        (2443; 1727)
+2683482: mip =     not found yet >=   2.969600000e+04        (2448; 1730)
+2694386: mip =     not found yet >=   2.969600000e+04        (2452; 1735)
+2706462: mip =     not found yet >=   2.969600000e+04        (2454; 1739)
+2718154: mip =     not found yet >=   2.969600000e+04        (2459; 1744)
+2730761: mip =     not found yet >=   2.969600000e+04        (2462; 1749)
Time used: 1269.3 secs.  Memory used: 31.8 Mb.
+2743457: mip =     not found yet >=   2.969600000e+04        (2471; 1752)
+2754832: mip =     not found yet >=   2.969600000e+04        (2491; 1759)
+2766123: mip =     not found yet >=   2.969600000e+04        (2512; 1776)
+2776812: mip =     not found yet >=   2.969600000e+04        (2522; 1790)
+2788838: mip =     not found yet >=   2.969600000e+04        (2527; 1803)
+2799997: mip =     not found yet >=   2.969600000e+04        (2543; 1816)
+2810800: mip =     not found yet >=   2.969600000e+04        (2549; 1829)
+2821785: mip =     not found yet >=   2.969600000e+04        (2562; 1842)
+2834150: mip =     not found yet >=   2.969600000e+04        (2565; 1858)
+2846113: mip =     not found yet >=   2.969600000e+04        (2599; 1871)
+2858314: mip =     not found yet >=   2.969600000e+04        (2615; 1881)
+2870697: mip =     not found yet >=   2.969600000e+04        (2632; 1893)
Time used: 1330.1 secs.  Memory used: 33.4 Mb.
+2881791: mip =     not found yet >=   2.969600000e+04        (2638; 1898)
+2894380: mip =     not found yet >=   2.969600000e+04        (2648; 1905)
+2905718: mip =     not found yet >=   2.969600000e+04        (2662; 1912)
+2916942: mip =     not found yet >=   2.969600000e+04        (2661; 1919)
+2927689: mip =     not found yet >=   2.969600000e+04        (2663; 1924)
+2938635: mip =     not found yet >=   2.969600000e+04        (2673; 1938)
+2949146: mip =     not found yet >=   2.969600000e+04        (2681; 1946)
+2960579: mip =     not found yet >=   2.969600000e+04        (2688; 1950)
+2972269: mip =     not found yet >=   2.969600000e+04        (2695; 1961)
+2984332: mip =     not found yet >=   2.969600000e+04        (2698; 1966)
+2995198: mip =     not found yet >=   2.969600000e+04        (2703; 1971)
Time used: 1390.3 secs.  Memory used: 34.4 Mb.
+3007086: mip =     not found yet >=   2.969600000e+04        (2712; 1987)
+3018459: mip =     not found yet >=   2.969600000e+04        (2714; 1994)
+3029509: mip =     not found yet >=   2.969600000e+04        (2726; 2002)
+3041216: mip =     not found yet >=   2.969600000e+04        (2740; 2014)
+3052132: mip =     not found yet >=   2.969600000e+04        (2752; 2027)
+3065904: mip =     not found yet >=   2.969600000e+04        (2766; 2040)
+3078669: mip =     not found yet >=   2.969600000e+04        (2773; 2049)
+3090061: mip =     not found yet >=   2.969600000e+04        (2784; 2052)
+3101037: mip =     not found yet >=   2.969600000e+04        (2786; 2056)
+3112869: mip =     not found yet >=   2.969600000e+04        (2794; 2064)
+3124882: mip =     not found yet >=   2.969600000e+04        (2794; 2069)
Time used: 1450.6 secs.  Memory used: 35.6 Mb.
+3136931: mip =     not found yet >=   2.969600000e+04        (2801; 2075)
+3149021: mip =     not found yet >=   2.969600000e+04        (2802; 2079)
+3160994: mip =     not found yet >=   2.969600000e+04        (2806; 2083)
+3171825: mip =     not found yet >=   2.969600000e+04        (2814; 2097)
+3182679: mip =     not found yet >=   2.969600000e+04        (2822; 2102)
+3194134: mip =     not found yet >=   2.969600000e+04        (2828; 2106)
+3206617: mip =     not found yet >=   2.969600000e+04        (2831; 2109)
+3217497: mip =     not found yet >=   2.969600000e+04        (2838; 2116)
+3230494: mip =     not found yet >=   2.969600000e+04        (2847; 2125)
+3243906: mip =     not found yet >=   2.969600000e+04        (2857; 2133)
+3254799: mip =     not found yet >=   2.969600000e+04        (2858; 2137)
Time used: 1510.7 secs.  Memory used: 36.4 Mb.
+3265630: mip =     not found yet >=   2.969600000e+04        (2873; 2144)
+3276735: mip =     not found yet >=   2.969600000e+04        (2885; 2145)
+3288183: mip =     not found yet >=   2.969600000e+04        (2890; 2148)
+3298719: mip =     not found yet >=   2.969600000e+04        (2893; 2151)
+3309442: mip =     not found yet >=   2.969600000e+04        (2897; 2160)
+3320998: mip =     not found yet >=   2.969600000e+04        (2895; 2166)
+3332656: mip =     not found yet >=   2.969600000e+04        (2941; 2174)
+3343648: mip =     not found yet >=   2.969600000e+04        (2955; 2181)
+3354389: mip =     not found yet >=   2.969600000e+04        (2962; 2189)
+3365098: mip =     not found yet >=   2.969600000e+04        (2967; 2197)
+3376439: mip =     not found yet >=   2.969600000e+04        (2976; 2214)
Time used: 1570.7 secs.  Memory used: 37.5 Mb.
+3388011: mip =     not found yet >=   2.969600000e+04        (2989; 2230)
+3399253: mip =     not found yet >=   2.969600000e+04        (3002; 2238)
+3410371: mip =     not found yet >=   2.969600000e+04        (3018; 2256)
+3421079: mip =     not found yet >=   2.969600000e+04        (3023; 2263)
+3434125: mip =     not found yet >=   2.969600000e+04        (3032; 2267)
+3444978: mip =     not found yet >=   2.969600000e+04        (3040; 2277)
+3456043: mip =     not found yet >=   2.969600000e+04        (3048; 2281)
+3467064: mip =     not found yet >=   2.969600000e+04        (3057; 2296)
+3478479: mip =     not found yet >=   2.969600000e+04        (3060; 2301)
+3489610: mip =     not found yet >=   2.969600000e+04        (3066; 2305)
+3500862: mip =     not found yet >=   2.969600000e+04        (3068; 2317)
+3511619: mip =     not found yet >=   2.969600000e+04        (3073; 2321)
Time used: 1631.7 secs.  Memory used: 38.6 Mb.
+3522748: mip =     not found yet >=   2.969600000e+04        (3074; 2326)
+3536154: mip =     not found yet >=   2.969600000e+04        (3083; 2340)
+3546944: mip =     not found yet >=   2.969600000e+04        (3083; 2351)
+3558176: mip =     not found yet >=   2.969600000e+04        (3093; 2360)
+3569613: mip =     not found yet >=   2.969600000e+04        (3101; 2365)
+3581957: mip =     not found yet >=   2.969600000e+04        (3125; 2371)
+3594206: mip =     not found yet >=   2.969600000e+04        (3150; 2386)
+3606102: mip =     not found yet >=   2.969600000e+04        (3170; 2395)
+3617736: mip =     not found yet >=   2.969600000e+04        (3194; 2401)
+3630110: mip =     not found yet >=   2.969600000e+04        (3208; 2409)
+3642031: mip =     not found yet >=   2.969600000e+04        (3214; 2412)
Time used: 1692.8 secs.  Memory used: 39.9 Mb.
+3654559: mip =     not found yet >=   2.969600000e+04        (3217; 2416)
+3665608: mip =     not found yet >=   2.969600000e+04        (3228; 2421)
+3676875: mip =     not found yet >=   2.969600000e+04        (3232; 2430)
+3689345: mip =     not found yet >=   2.969600000e+04        (3233; 2446)
+3699923: mip =     not found yet >=   2.969600000e+04        (3237; 2454)
+3711363: mip =     not found yet >=   2.969600000e+04        (3245; 2458)
+3722256: mip =     not found yet >=   2.969600000e+04        (3249; 2460)
+3735443: mip =     not found yet >=   2.969600000e+04        (3251; 2467)
+3746565: mip =     not found yet >=   2.969600000e+04        (3253; 2476)
+3757433: mip =     not found yet >=   2.969600000e+04        (3256; 2484)
+3767947: mip =     not found yet >=   2.969600000e+04        (3257; 2491)
Time used: 1753.0 secs.  Memory used: 40.8 Mb.
+3779064: mip =     not found yet >=   2.969600000e+04        (3278; 2502)
+3789328: mip =     not found yet >=   2.969600000e+04        (3280; 2509)
+3800745: mip =     not found yet >=   2.969600000e+04        (3287; 2521)
+3812419: mip =     not found yet >=   2.969600000e+04        (3294; 2529)
+3824233: mip =     not found yet >=   2.969600000e+04        (3299; 2538)
+3836991: mip =     not found yet >=   2.969600000e+04        (3315; 2550)
+3847864: mip =     not found yet >=   2.969600000e+04        (3331; 2556)
+3858472: mip =     not found yet >=   2.969600000e+04        (3341; 2565)
+3868913: mip =     not found yet >=   2.969600000e+04        (3353; 2576)
